
Gurobi 12.0.3 (linux64) logging started Sat Mar 28 03:21:41 2026

Set parameter LogFile to value "/home/solar-wind/WT_Solar_results_bigM100000_thread4/case24_ieee_rts_theta0.06_epsilon0.03_gurobi_seed30000_num_gen38_N_WDR300_load_scaling_factor1_EIFICA_T24_num_Solar5_num_WT10.txt"
Gurobi Optimizer version 12.0.3 build v12.0.3rc0 (linux64 - "Ubuntu 22.04.5 LTS")

CPU model: Intel(R) Xeon(R) Platinum 8378A CPU @ 3.00GHz, instruction set [SSE2|AVX|AVX2|AVX512]
Thread count: 32 physical cores, 64 logical processors, using up to 4 threads

Non-default parameters:
TimeLimit  14400
MIPGap  0.001
Seed  30000
Threads  4

Academic license 2721591 - for non-commercial use only - registered to fa___@mails.neu.edu.cn
Optimize a model with 728204 rows, 2125 columns and 74768920 nonzeros
Model fingerprint: 0x2f565078
Model has 912 quadratic objective terms
Coefficient statistics:
  Matrix range     [3e-07, 7e+01]
  Objective range  [2e+01, 6e+01]
  QObjective range [4e-03, 2e-02]
  Bounds range     [0e+00, 0e+00]
  RHS range        [3e-02, 1e+03]
Presolve removed 622759 rows and 0 columns (presolve time = 6s)...
Presolve removed 623633 rows and 0 columns
Presolve time: 7.13s
Presolved: 104571 rows, 2999 columns, 3698120 nonzeros
Presolved model has 912 quadratic objective terms
Elapsed ordering time = 8s
Ordering time: 13.86s
Elapsed ordering time = 14s
Elapsed ordering time = 16s
Elapsed ordering time = 20s
Elapsed ordering time = 20s
Elapsed ordering time = 24s
Elapsed ordering time = 25s
Elapsed ordering time = 28s
Elapsed ordering time = 30s
Elapsed ordering time = 32s
Ordering time: 35.95s

Barrier statistics:
 Dense cols : 1184
 AA' NZ     : 1.008e+08
 Factor NZ  : 6.294e+08 (roughly 5.0 GB of memory)
 Factor Ops : 1.031e+13 (roughly 60 seconds per iteration)
 Threads    : 4

                  Objective                Residual
Iter       Primal          Dual         Primal    Dual     Compl     Time
   0   5.56129733e+08 -2.93339721e+08  3.75e+04 1.00e+03  9.93e+05    93s
   1   4.57670036e+08 -2.29549689e+08  3.29e+04 8.77e+02  8.73e+05    93s
   2   4.38799415e+08 -2.31105379e+08  3.20e+04 8.53e+02  8.69e+05    93s
   3   3.82979380e+08 -2.37320117e+08  2.93e+04 7.76e+02  8.19e+05    93s
   4   3.38696485e+08 -2.28207636e+08  2.70e+04 7.11e+02  7.51e+05    93s
   5   2.97382845e+08 -2.25044060e+08  2.47e+04 6.48e+02  6.85e+05    93s
   6   2.55015980e+08 -2.44588182e+08  2.22e+04 5.78e+02  6.34e+05    94s
   7   2.13459605e+08 -2.48245266e+08  1.96e+04 5.05e+02  5.56e+05    94s
   8   1.84695445e+08 -2.52865414e+08  1.76e+04 4.51e+02  4.97e+05    94s
   9   1.57781900e+08 -2.59400782e+08  1.57e+04 3.97e+02  4.39e+05    94s
  10   1.39133214e+08 -2.68635667e+08  1.43e+04 3.57e+02  3.96e+05    94s
  11   1.15160744e+08 -3.02166653e+08  1.24e+04 3.03e+02  3.53e+05    94s
  12   9.56759015e+07 -3.49851340e+08  1.07e+04 2.58e+02  3.26e+05    94s
  13   7.48708894e+07 -3.79132239e+08  8.83e+03 2.08e+02  2.64e+05    94s
  14   6.25282534e+07 -4.18962156e+08  7.62e+03 1.77e+02  2.35e+05    94s
  15   5.09102883e+07 -4.43075259e+08  6.42e+03 1.47e+02  1.96e+05    94s
  16   3.95852300e+07 -4.68024012e+08  5.16e+03 1.17e+02  1.57e+05    95s
  17   3.13953928e+07 -4.84790317e+08  4.19e+03 9.40e+01  1.27e+05    95s
  18   2.34504508e+07 -4.97178853e+08  3.25e+03 7.12e+01  9.77e+04    95s
  19   1.61268452e+07 -5.00127887e+08  2.73e+03 4.95e+01  6.92e+04    95s
  20   1.11186510e+07 -4.88925606e+08  2.13e+03 3.42e+01  4.86e+04    95s
  21   4.46468891e+06 -4.41969637e+08  1.29e+03 1.31e+01  2.26e+04    95s
  22   3.14245928e+06 -3.89712977e+08  9.36e+02 8.85e+00  1.56e+04    95s
  23   2.44491831e+06 -3.48499847e+08  7.24e+02 6.66e+00  1.19e+04    95s
  24   1.99396614e+06 -3.12564568e+08  5.73e+02 5.22e+00  9.44e+03    95s
  25   1.54859157e+06 -2.67761001e+08  4.15e+02 3.74e+00  6.91e+03    95s
  26   1.31777750e+06 -2.37325151e+08  3.28e+02 2.93e+00  5.48e+03    95s
  27   1.07830625e+06 -1.97778025e+08  2.24e+02 2.05e+00  3.92e+03    96s
  28   8.86388037e+05 -1.65739625e+08  1.35e+02 1.24e+00  2.70e+03    96s
  29   7.87300118e+05 -1.46886043e+08  7.75e+01 7.04e-01  2.01e+03    96s
  30   7.46463160e+05 -1.23246529e+08  5.33e+01 4.89e-01  1.55e+03    96s
  31   7.17494497e+05 -1.08520169e+08  3.42e+01 3.16e-01  1.26e+03    96s
  32   7.05744051e+05 -9.92635714e+07  2.53e+01 2.33e-01  1.10e+03    96s
  33   6.99813523e+05 -8.77005443e+07  2.00e+01 1.85e-01  9.49e+02    97s
  34   6.93911806e+05 -7.43831839e+07  1.49e+01 1.34e-01  7.82e+02    97s
  35   6.87654862e+05 -5.51639707e+07  7.90e+00 7.23e-02  5.58e+02    97s
  36   6.86297141e+05 -3.64276190e+07  5.21e+00 4.62e-02  3.65e+02    98s
  37   6.85360974e+05 -3.44424485e+07  4.19e+00 3.83e-02  3.50e+02    99s
  38   6.84808419e+05 -3.17942542e+07  3.63e+00 3.32e-02  3.24e+02   101s
  39   6.81801000e+05 -1.00282051e+07  8.02e-02 9.58e-02  9.89e+01   136s
  40   6.75042307e+05  1.58430381e+05  3.39e-03 8.52e-04  4.77e+00   175s
  41   6.26790354e+05  4.94234461e+05  3.53e-04 2.68e-04  1.22e+00   226s
  42   6.03324693e+05  5.73549770e+05  3.88e-05 2.99e-05  2.75e-01   439s
  43   5.98722067e+05  5.86565143e+05  2.17e-05 2.31e-05  1.12e-01   979s
  44   5.97525735e+05  5.92915089e+05  9.68e-07 1.03e-06  4.25e-02  1021s
  45   5.96995277e+05  5.95910952e+05  6.29e-08 6.71e-08  1.00e-02  1064s
  46   5.96885579e+05  5.96499283e+05  2.12e-09 2.02e-09  3.56e-03  1108s
  47   5.96841010e+05  5.96755671e+05  1.29e-10 7.63e-09  7.87e-04  1150s
  48   5.96830497e+05  5.96816454e+05  1.95e-10 6.82e-10  1.30e-04  1194s
  49   5.96828779e+05  5.96826337e+05  1.68e-09 1.21e-10  2.25e-05  1237s
  50   5.96828451e+05  5.96828221e+05  6.44e-09 2.43e-12  2.12e-06  1318s
  51   5.96828417e+05  5.96828417e+05  1.25e-09 3.59e-10  2.34e-09  1436s

Barrier solved model in 51 iterations and 1435.87 seconds (806.34 work units)
Optimal objective 5.96828417e+05

